c
c Generated WCNF file
c
p wcnf 92 417 31064
31064 14 0
31064 -15 1 0
31064 -15 2 0
31064 15 -1 -2 0
31064 -16 1 0
31064 -16 3 0
31064 16 -1 -3 0
31064 -17 1 0
31064 -17 4 0
31064 17 -1 -4 0
31064 -18 1 0
31064 -18 5 0
31064 18 -1 -5 0
31064 -19 1 0
31064 -19 6 0
31064 19 -1 -6 0
31064 -20 1 0
31064 -20 7 0
31064 20 -1 -7 0
31064 -21 1 0
31064 -21 8 0
31064 21 -1 -8 0
31064 -22 1 0
31064 -22 9 0
31064 22 -1 -9 0
31064 -23 1 0
31064 -23 10 0
31064 23 -1 -10 0
31064 -24 1 0
31064 -24 11 0
31064 24 -1 -11 0
31064 -25 1 0
31064 -25 12 0
31064 25 -1 -12 0
31064 -26 1 0
31064 -26 13 0
31064 26 -1 -13 0
31064 -27 2 0
31064 -27 3 0
31064 27 -2 -3 0
31064 -28 2 0
31064 -28 4 0
31064 28 -2 -4 0
31064 -29 2 0
31064 -29 5 0
31064 29 -2 -5 0
31064 -30 2 0
31064 -30 6 0
31064 30 -2 -6 0
31064 -31 2 0
31064 -31 7 0
31064 31 -2 -7 0
31064 -32 2 0
31064 -32 8 0
31064 32 -2 -8 0
31064 -33 2 0
31064 -33 9 0
31064 33 -2 -9 0
31064 -34 2 0
31064 -34 10 0
31064 34 -2 -10 0
31064 -35 2 0
31064 -35 11 0
31064 35 -2 -11 0
31064 -36 2 0
31064 -36 12 0
31064 36 -2 -12 0
31064 -37 2 0
31064 -37 13 0
31064 37 -2 -13 0
31064 -38 3 0
31064 -38 4 0
31064 38 -3 -4 0
31064 -39 3 0
31064 -39 5 0
31064 39 -3 -5 0
31064 -40 3 0
31064 -40 6 0
31064 40 -3 -6 0
31064 -41 3 0
31064 -41 7 0
31064 41 -3 -7 0
31064 -42 3 0
31064 -42 8 0
31064 42 -3 -8 0
31064 -43 3 0
31064 -43 9 0
31064 43 -3 -9 0
31064 -44 3 0
31064 -44 10 0
31064 44 -3 -10 0
31064 -45 3 0
31064 -45 11 0
31064 45 -3 -11 0
31064 -46 3 0
31064 -46 12 0
31064 46 -3 -12 0
31064 -47 3 0
31064 -47 13 0
31064 47 -3 -13 0
31064 -48 4 0
31064 -48 5 0
31064 48 -4 -5 0
31064 -49 4 0
31064 -49 6 0
31064 49 -4 -6 0
31064 -50 4 0
31064 -50 7 0
31064 50 -4 -7 0
31064 -51 4 0
31064 -51 8 0
31064 51 -4 -8 0
31064 -52 4 0
31064 -52 9 0
31064 52 -4 -9 0
31064 -53 4 0
31064 -53 10 0
31064 53 -4 -10 0
31064 -54 4 0
31064 -54 11 0
31064 54 -4 -11 0
31064 -55 4 0
31064 -55 12 0
31064 55 -4 -12 0
31064 -56 4 0
31064 -56 13 0
31064 56 -4 -13 0
31064 -57 5 0
31064 -57 6 0
31064 57 -5 -6 0
31064 -58 5 0
31064 -58 7 0
31064 58 -5 -7 0
31064 -59 5 0
31064 -59 8 0
31064 59 -5 -8 0
31064 -60 5 0
31064 -60 9 0
31064 60 -5 -9 0
31064 -61 5 0
31064 -61 10 0
31064 61 -5 -10 0
31064 -62 5 0
31064 -62 11 0
31064 62 -5 -11 0
31064 -63 5 0
31064 -63 12 0
31064 63 -5 -12 0
31064 -64 5 0
31064 -64 13 0
31064 64 -5 -13 0
31064 -65 6 0
31064 -65 7 0
31064 65 -6 -7 0
31064 -66 6 0
31064 -66 8 0
31064 66 -6 -8 0
31064 -67 6 0
31064 -67 9 0
31064 67 -6 -9 0
31064 -68 6 0
31064 -68 10 0
31064 68 -6 -10 0
31064 -69 6 0
31064 -69 11 0
31064 69 -6 -11 0
31064 -70 6 0
31064 -70 12 0
31064 70 -6 -12 0
31064 -71 6 0
31064 -71 13 0
31064 71 -6 -13 0
31064 -72 7 0
31064 -72 8 0
31064 72 -7 -8 0
31064 -73 7 0
31064 -73 9 0
31064 73 -7 -9 0
31064 -74 7 0
31064 -74 10 0
31064 74 -7 -10 0
31064 -75 7 0
31064 -75 11 0
31064 75 -7 -11 0
31064 -76 7 0
31064 -76 12 0
31064 76 -7 -12 0
31064 -77 7 0
31064 -77 13 0
31064 77 -7 -13 0
31064 -78 8 0
31064 -78 9 0
31064 78 -8 -9 0
31064 -79 8 0
31064 -79 10 0
31064 79 -8 -10 0
31064 -80 8 0
31064 -80 11 0
31064 80 -8 -11 0
31064 -81 8 0
31064 -81 12 0
31064 81 -8 -12 0
31064 -82 8 0
31064 -82 13 0
31064 82 -8 -13 0
31064 -83 9 0
31064 -83 10 0
31064 83 -9 -10 0
31064 -84 9 0
31064 -84 11 0
31064 84 -9 -11 0
31064 -85 9 0
31064 -85 12 0
31064 85 -9 -12 0
31064 -86 9 0
31064 -86 13 0
31064 86 -9 -13 0
31064 -87 10 0
31064 -87 11 0
31064 87 -10 -11 0
31064 -88 10 0
31064 -88 12 0
31064 88 -10 -12 0
31064 -89 10 0
31064 -89 13 0
31064 89 -10 -13 0
31064 -90 11 0
31064 -90 12 0
31064 90 -11 -12 0
31064 -91 11 0
31064 -91 13 0
31064 91 -11 -13 0
31064 -92 12 0
31064 -92 13 0
31064 92 -12 -13 0
17342 1 0
31054 -1 0
28194 15 0
31054 -15 0
32570 16 0
31054 -16 0
23938 17 0
31054 -17 0
27154 18 0
31054 -18 0
38812 19 0
31054 -19 0
36334 20 0
31054 -20 0
22812 21 0
31054 -21 0
31162 22 0
31054 -22 0
36464 23 0
31054 -23 0
32124 24 0
31054 -24 0
30892 25 0
31054 -25 0
29610 26 0
31054 -26 0
46700 2 0
31054 -2 0
38468 27 0
31054 -27 0
37758 28 0
31054 -28 0
20964 29 0
31054 -29 0
39814 30 0
31054 -30 0
40922 31 0
31054 -31 0
28912 32 0
31054 -32 0
29640 33 0
31054 -33 0
27680 34 0
31054 -34 0
27544 35 0
31054 -35 0
28006 36 0
31054 -36 0
29458 37 0
31054 -37 0
11652 3 0
31054 -3 0
27580 38 0
31054 -38 0
30280 39 0
31054 -39 0
26998 40 0
31054 -40 0
27504 41 0
31054 -41 0
26318 42 0
31054 -42 0
31156 43 0
31054 -43 0
29606 44 0
31054 -44 0
34034 45 0
31054 -45 0
34504 46 0
31054 -46 0
34854 47 0
31054 -47 0
13075 4 0
31054 -4 0
33108 48 0
31054 -48 0
22734 49 0
31054 -49 0
26974 50 0
31054 -50 0
33026 51 0
31054 -51 0
29528 52 0
31054 -52 0
35632 53 0
31054 -53 0
33616 54 0
31054 -54 0
33010 55 0
31054 -55 0
31586 56 0
31054 -56 0
30903 5 0
31054 -5 0
37182 57 0
31054 -57 0
32602 58 0
31054 -58 0
21164 59 0
31054 -59 0
30716 60 0
31054 -60 0
30364 61 0
31054 -61 0
33604 62 0
31054 -62 0
34054 63 0
31054 -63 0
34474 64 0
31054 -64 0
15022 6 0
31054 -6 0
24554 65 0
31054 -65 0
38254 66 0
31054 -66 0
30150 67 0
31054 -67 0
31984 68 0
31054 -68 0
32604 69 0
31054 -69 0
32668 70 0
31054 -70 0
32042 71 0
31054 -71 0
10249 7 0
31054 -7 0
35020 72 0
31054 -72 0
34410 73 0
31054 -73 0
31522 74 0
31054 -74 0
35706 75 0
31054 -75 0
35530 76 0
31054 -76 0
34246 77 0
31054 -77 0
22958 8 0
31054 -8 0
31260 78 0
31054 -78 0
31762 79 0
31054 -79 0
33614 80 0
31054 -80 0
33784 81 0
31054 -81 0
34094 82 0
31054 -82 0
31493 9 0
31054 -9 0
32618 83 0
31054 -83 0
29758 84 0
31054 -84 0
29980 85 0
31054 -85 0
30446 86 0
31054 -86 0
33731 10 0
31054 -10 0
29792 87 0
31054 -87 0
30388 88 0
31054 -88 0
31282 89 0
31054 -89 0
36395 11 0
31054 -11 0
27604 90 0
31054 -90 0
28394 91 0
31054 -91 0
35854 12 0
31054 -12 0
28090 92 0
31054 -92 0
33942 13 0
31054 -13 0
